9
2147483647 32 93 67 6 98 69 3 80 
32 2147483647 80 94 42 37 30 38 75 
93 80 2147483647 50 43 98 9 71 49 
67 94 50 2147483647 19 20 64 66 66 
6 42 43 19 2147483647 2 50 48 52 
98 37 98 20 2 2147483647 51 72 83 
69 30 9 64 50 51 2147483647 17 24 
3 38 71 66 48 72 17 2147483647 51 
80 75 49 66 52 83 24 51 2147483647 
